Optimal - objective value -103.93589000
      0 squad[318,24]                                    1                       0
      1 squad[318,25]                                    1                       0
      2 squad[283,24]                                    1                       0
      3 squad[283,25]                                    1                       0
      4 squad[13,24]                                     1                       0
      5 squad[13,25]                                     1                       0
      8 squad[7,24]                                      1                       0
      9 squad[7,25]                                      1                       0
     10 squad[133,24]                                    1                       0
     11 squad[133,25]                                    1                       0
     12 squad[285,24]                                    1                       0
     13 squad[285,25]                                    1                       0
     20 squad[313,24]                                    1                       0
     21 squad[313,25]                                    1                       0
     22 squad[281,24]                                    1                       0
     23 squad[281,25]                                    1                       0
     24 squad[124,24]                                    1                       0
     26 squad[80,24]                                     1                       0
     27 squad[80,25]                                     1                       0
     74 squad[394,24]                                    1                       0
     75 squad[394,25]                                    1                       0
     80 squad[586,24]                                    1                       0
     81 squad[586,25]                                    1                       0
     92 squad[480,24]                                    1                       0
     93 squad[480,25]                                    1                       0
    118 squad[484,24]                                    1                       0
    119 squad[484,25]                                    1                       0
    124 squad[199,24]                                    1                       0
    125 squad[199,25]                                    1                       0
    127 squad[186,25]                                    1                       0
   1332 lineup[318,25]                                   1                  -7.026
   1333 lineup[283,25]                                   1                  -11.94
   1334 lineup[13,25]                                    1                 -10.305
   1336 lineup[7,25]                                     1                  -9.543
   1338 lineup[285,25]                                   1                  -9.865
   1342 lineup[313,25]                                   1                  -8.321
   1343 lineup[281,25]                                   1                  -8.776
   1378 lineup[480,25]                                   1                  -6.602
   1391 lineup[484,25]                                   1                  -5.275
   1394 lineup[199,25]                                   1                  -5.299
   1395 lineup[186,25]                                   1                  -5.654
   1777 captain[283,25]                                  1                  -11.94
   2222 vicecap[13,25]                                   1                 -1.0305
   2684 bench[133,25,0]                                  1                 -0.1161
   2718 bench[80,25,2]                                   1                       0
   2813 bench[394,25,1]                                  1                -0.70329
   2827 bench[586,25,3]                                  1                       0
   4503 transfer_in[186,25]                              1                    1.08
   4886 tr_out_first[124,25]                             1                   -1.06
   5334 itb[24]                                        0.3                       0
   5335 itb[25]                                        0.2                       0
   5337 ft[25]                                           1                    -1.5
